c A SAT instance generated from a 3-CNF formula that had 36 clauses and 12 variables
p cnf 12 36
1 -2 6 0
-8 2 10 0
9 2 -1 0
-8 -2 -7 0
1 -4 -6 0
-7 10 -11 0
5 -4 -3 0
8 -4 2 0
-10 -6 8 0
-8 -11 -7 0
4 1 8 0
-10 -9 -5 0
-7 -6 -5 0
11 -2 4 0
2 8 9 0
-6 5 1 0
-2 12 11 0
-3 10 -5 0
-4 2 1 0
-7 -4 -6 0
7 8 12 0
-11 -5 3 0
-9 12 3 0
-5 4 -2 0
-11 3 10 0
5 10 -11 0
3 -12 -8 0
10 7 -2 0
9 -2 -5 0
12 6 1 0
-11 -1 -7 0
7 -9 6 0
3 12 1 0
11 6 -1 0
-6 -4 10 0
-6 -5 -11 0
